9
0 28 11 75 88 32 74 89 18 
7 0 53 3 46 13 19 77 9 
8 84 0 3 4 41 96 24 40 
28 72 49 0 75 1 20 27 22 
6 93 88 89 0 91 93 72 22 
21 39 10 50 2 0 93 28 24 
52 62 73 31 32 45 0 1 62 
32 67 14 18 20 5 54 0 4 
46 86 3 28 89 22 46 14 0 
